SCIP Status        : solving was interrupted [time limit reached]
Total Time         :    3600.00
  solving          :    3600.00
  presolving       :       0.22 (included in solving)
  reading          :       0.00
  copying          :       0.49 (37 #copies) (minimal 0.00, maximal 0.03, average 0.01)
Original Problem   :
  Problem name     : bbbenchmark/g05_60.7.cut
  Variables        : 61 (60 binary, 0 integer, 0 implicit integer, 1 continuous)
  Constraints      : 1 initial, 1 maximal
  Objective        : minimize, 1 non-zeros (abs.min = 1, abs.max = 1)
Presolved Problem  :
  Problem name     : t_bbbenchmark/g05_60.7.cut
  Variables        : 946 (60 binary, 0 integer, 885 implicit integer, 1 continuous)
  Constraints      : 886 initial, 7799 maximal
  Objective        : minimize, 1 non-zeros (abs.min = 1, abs.max = 1)
  Nonzeros         : 3601 constraint, 122 clique table
Presolvers         :   ExecTime  SetupTime  Calls  FixedVars   AggrVars   ChgTypes  ChgBounds   AddHoles    DelCons    AddCons   ChgSides   ChgCoefs
  boundshift       :       0.00       0.00      0          0          0          0          0          0          0          0          0          0
  convertinttobin  :       0.00       0.00      0          0          0          0          0          0          0          0          0          0
  domcol           :       0.00       0.00      1          0          0          0          0          0          0          0          0          0
  dualagg          :       0.00       0.00      0          0          0          0          0          0          0          0          0          0
  dualcomp         :       0.00       0.00      1          0          0          0          0          0          0          0          0          0
  dualinfer        :       0.00       0.00      0          0          0          0          0          0          0          0          0          0
  dualsparsify     :       0.00       0.00      1          0          0          0          0          0          0          0          0          0
  gateextraction   :       0.00       0.00      0          0          0          0          0          0          0          0          0          0
  implics          :       0.00       0.00      2          0          0          0          0          0          0          0          0          0
  inttobinary      :       0.00       0.00      0          0          0          0          0          0          0          0          0          0
  qpkktref         :       0.00       0.00      0          0          0          0          0          0          0          0          0          0
  redvub           :       0.00       0.00      0          0          0          0          0          0          0          0          0          0
  sparsify         :       0.00       0.00      1          0          0          0          0          0          0          0          0          0
  stuffing         :       0.00       0.00      0          0          0          0          0          0          0          0          0          0
  trivial          :       0.00       0.00      4          0          0          0          0          0          0          0          0          0
  tworowbnd        :       0.00       0.00      0          0          0          0          0          0          0          0          0          0
  dualfix          :       0.00       0.00      4          0          0          0          0          0          0          0          0          0
  genvbounds       :       0.00       0.00      0          0          0          0          0          0          0          0          0          0
  probing          :       0.11       0.00      1          0          0          0          0          0          0          0          0          0
  pseudoobj        :       0.00       0.00      1          0          0          0          1          0          0          0          0          0
  symmetry         :       0.00       0.00      0          0          0          0          0          0          0          0          0          0
  vbounds          :       0.00       0.00      1          0          0          0          0          0          0          0          0          0
  and              :       0.01       0.01      2          0          0          0          0          0          0          0          0          0
  linear           :       0.00       0.00      2          0          0          0          0          0          0          0          0          0
  logicor          :       0.00       0.00      0          0          0          0          0          0          0          0          0          0
  nonlinear        :       0.10       0.00      5          0          0          0          1          0          0        885          0          0
  benders          :       0.00       0.00      0          0          0          0          0          0          0          0          0          0
  components       :       0.00       0.00      1          0          0          0          0          0          0          0          0          0
  root node        :          -          -      -          0          -          -         51          -          -          -          -          -
Constraints        :     Number  MaxNumber  #Separate #Propagate    #EnfoLP    #EnfoRelax  #EnfoPS    #Check   #ResProp    Cutoffs    DomReds       Cuts    Applied      Conss   Children
  benderslp        :          0          0          0          0      78654          0          0       5141          0          0          0          0          0          0          0
  integral         :          0          0          0          0      78654          0          0       5141          0          1      11330          0          0       5183     150956
  and              :        885        885      86356     481868          7          0          0         28      92499         70    2926022       2666       2309          0          0
  linear           :          1          1         59     481798          7          0          0         26          0          0          0          0          0          0          0
  logicor          :          0+      6913          0     136791          0          0          0          0       1449        679        221          0          0          0          0
  benders          :          0          0          0          0          7          0          0         29          0          0          0          0          0          0          0
  countsols        :          0          0          0          0          7          0          0         29          0          0          0          0          0          0          0
  components       :          0          0          0          0          0          0          0          0          0          0          0          0          0          0          0
Constraint Timings :  TotalTime  SetupTime   Separate  Propagate     EnfoLP     EnfoPS     EnfoRelax   Check    ResProp    SB-Prop
  benderslp        :       0.09       0.00       0.00       0.00       0.09       0.00       0.00       0.00       0.00       0.00
  integral         :      46.13       0.00       0.00       0.00      46.12       0.00       0.00       0.01       0.00       0.00
  and              :      42.80       0.01      25.82      16.16       0.00       0.00       0.00       0.00       0.10       0.71
  linear           :       0.43       0.00       0.01       0.40       0.00       0.00       0.00       0.01       0.00       0.01
  logicor          :       8.88       0.00       0.00       8.86       0.00       0.00       0.00       0.00       0.00       0.02
  benders          :       0.00       0.00       0.00       0.00       0.00       0.00       0.00       0.00       0.00       0.00
  countsols        :       0.00       0.00       0.00       0.00       0.00       0.00       0.00       0.00       0.00       0.00
  components       :       0.18       0.00       0.00       0.18       0.00       0.00       0.00       0.00       0.00       0.00
Propagators        : #Propagate   #ResProp    Cutoffs    DomReds
  dualfix          :          4          0          0          0
  genvbounds       :          0          0          0          0
  nlobbt           :          0          0          0          0
  obbt             :          0          0          0          0
  probing          :          0          0          0          0
  pseudoobj        :     425246          0          0         53
  redcost          :     191329          0          0     492912
  rootredcost      :         16          0          0          0
  symmetry         :          0          0          0          0
  vbounds          :      29013          0          0          0
Propagator Timings :  TotalTime  SetupTime   Presolve  Propagate    ResProp    SB-Prop
  dualfix          :       0.00       0.00       0.00       0.00       0.00       0.00
  genvbounds       :       0.34       0.00       0.00       0.34       0.00       0.00
  nlobbt           :       0.00       0.00       0.00       0.00       0.00       0.00
  obbt             :       0.00       0.00       0.00       0.00       0.00       0.00
  probing          :       0.11       0.00       0.11       0.00       0.00       0.00
  pseudoobj        :       0.44       0.00       0.00       0.43       0.00       0.01
  redcost          :       5.73       0.00       0.00       5.73       0.00       0.00
  rootredcost      :       0.36       0.00       0.00       0.36       0.00       0.00
  symmetry         :       0.15       0.00       0.00       0.14       0.00       0.01
  vbounds          :       0.38       0.00       0.00       0.38       0.00       0.00
Conflict Analysis  :       Time      Calls    Success    DomReds  Conflicts   Literals    Reconvs ReconvLits   Dualrays   Nonzeros   LP Iters   (pool size: [10000,10000])
  propagation      :       0.00        749        404          -        472       24.3          0        0.0          -          -          -
  infeasible LP    :       0.00          0          0          -          0        0.0          0        0.0          0        0.0          0
  bound exceed. LP :      10.90      10522       7723          -      45513       30.5          7       22.9          0        0.0      51519
  strong branching :       0.00          0          0          -          0        0.0          0        0.0          -          -          0
  pseudo solution  :       0.00          0          0          -          0        0.0          0        0.0          -          -          -
  applied globally :       0.13          -          -          0      17459       30.9          -          -          0          -          -
  applied locally  :          -          -          -          0          0        0.0          -          -          0          -          -
Separators         :   ExecTime  SetupTime      Calls  RootCalls    Cutoffs    DomReds  FoundCuts ViaPoolAdd  DirectAdd    Applied ViaPoolApp  DirectApp      Conss
  cut pool         :       1.81          -      14364         83          -          -      21049     482696          -          -          -          -          -    (maximal pool size:       1247)
  aggregation      :      15.24       0.00       4772         59          0          0         39       1507          0        416        416          0          0
  > cmir           :          -          -          -          -          -          -          -       1507          0        416        416          0          -
  > flowcover      :          -          -          -          -          -          -          -          0          0          0          0          0          -
  > knapsackcover  :          -          -          -          -          -          -          -          0          0          0          0          0          -
  cgmip            :       0.00       0.00          0          0          0          0          0          0          0          0          0          0          0
  clique           :       0.00       0.00         59         59          0          0          0          0          0          0          0          0          0
  closecuts        :       0.00       0.00          0          0          0          0          0          0          0          0          0          0          0
  convexproj       :       0.00       0.00          0          0          0          0          0          0          0          0          0          0          0
  disjunctive      :       0.00       0.00          0          0          0          0          0          0          0          0          0          0          0
  eccuts           :       0.00       0.00          0          0          0          0          0          0          0          0          0          0          0
  gauge            :       0.00       0.00          0          0          0          0          0          0          0          0          0          0          0
  gomory           :       0.00       0.00          0          0          0          0          0          0          0          0          0          0          0
  > gomorymi       :          -          -          -          -          -          -          -          0          0          0          0          0          -
  > strongcg       :          -          -          -          -          -          -          -          0          0          0          0          0          -
  impliedbounds    :       0.09       0.00       4772         59          0          0          3          0          0          0          0          0          0
  interlattice     :       0.09       0.00         30         30          0          0         30          0         30         29          0         29          0
  interminor       :       0.00       0.00          0          0          0          0          0          0          0          0          0          0          0
  intersub         :       0.00       0.00          0          0          0          0          0          0          0          0          0          0          0
  intobj           :       0.00       0.00          0          0          0          0          0          0          0          0          0          0          0
  mcf              :       0.00       0.00          1          1          0          0          0          0          0          0          0          0          0
  minor            :       0.00       0.00          0          0          0          0          0          0          0          0          0          0          0
  mixing           :       0.01       0.00       4772         59          0          0          0          0          0          0          0          0          0
  oddcycle         :       0.00       0.00          0          0          0          0          0          0          0          0          0          0          0
  rapidlearning    :       0.01       0.00          0          0          0          0          0          0          0          0          0          0          0
  rlt              :       0.00       0.00         10         10          0          0          0          0          0          0          0          0          0
  zerohalf         :      18.65       0.00       3797         20          0          0      21007     481189          0      64758      64758          0          0
Cutselectors       :   ExecTime  SetupTime      Calls  RootCalls   Selected     Forced   Filtered  RootSelec   RootForc   RootFilt 
  hybrid           :       0.24       0.00       9473         57      67512          0     417880        197          0         28
Pricers            :   ExecTime  SetupTime      Calls       Vars
  problem variables:       0.00          -          0          0
Branching Rules    :   ExecTime  SetupTime   BranchLP  BranchExt   BranchPS    Cutoffs    DomReds       Cuts      Conss   Children
  allfullstrong    :       0.00       0.00          0          0          0          0          0          0          0          0
  cloud            :       0.00       0.00          0          0          0          0          0          0          0          0
  distribution     :       0.00       0.00          0          0          0          0          0          0          0          0
  fullstrong       :       0.00       0.00          0          0          0          0          0          0          0          0
  inference        :       0.00       0.00          0          0          0          0          0          0          0          0
  leastinf         :       0.00       0.00          0          0          0          0          0          0          0          0
  lookahead        :       0.00       0.00          0          0          0          0          0          0          0          0
  mostinf          :       0.00       0.00          0          0          0          0          0          0          0          0
  multaggr         :       0.00       0.00          0          0          0          0          0          0          0          0
  nodereopt        :       0.00       0.00          0          0          0          0          0          0          0          0
  pscost           :       0.00       0.00          0          0          0          0          0          0          0          0
  random           :       0.00       0.00          0          0          0          0          0          0          0          0
  relpscost        :      45.91       0.00      78647          0          0          1      11330          0       5197     150956
  vanillafullstrong:       0.00       0.00          0          0          0          0          0          0          0          0
Primal Heuristics  :   ExecTime  SetupTime      Calls      Found       Best
  LP solutions     :       0.00          -          -          7          7
  relax solutions  :       0.00          -          -          0          0
  pseudo solutions :       0.00          -          -          0          0
  strong branching :       0.04          -          -          2          2
  actconsdiving    :       0.00       0.00          0          0          0
  adaptivediving   :       8.38       0.00        401          1          1
  alns             :       1.40       0.00         25          3          3
  bound            :       0.00       0.00          0          0          0
  clique           :       0.00       0.00          1          0          0
  coefdiving       :       0.00       0.00          0          0          0
  completesol      :       0.00       0.00          0          0          0
  conflictdiving   :       4.23       0.00        238          0          0
  crossover        :       0.13       0.00          2          1          1
  dins             :       0.00       0.00          0          0          0
  distributiondivin:      12.63       0.00        238          0          0
  dps              :       0.00       0.00          0          0          0
  dualval          :       0.00       0.00          0          0          0
  farkasdiving     :       0.00       0.00          0          0          0
  feaspump         :       0.00       0.00          0          0          0
  fixandinfer      :       0.00       0.00          0          0          0
  fracdiving       :       5.90       0.00        239          0          0
  gins             :       0.05       0.00          0          0          0
  guideddiving     :       6.02       0.00        239          1          1
  indicator        :       0.06       0.00          0          0          0
  indicatordiving  :       0.00       0.00          0          0          0
  intdiving        :       0.00       0.00          0          0          0
  intshifting      :       0.05       0.00         19          0          0
  linesearchdiving :       5.21       0.00        239          0          0
  localbranching   :       0.00       0.00          0          0          0
  locks            :       0.01       0.00          1          0          0
  lpface           :       0.08       0.00          0          0          0
  mpec             :       1.54       0.00          1          0          0
  multistart       :       0.00       0.00          0          0          0
  mutation         :       0.00       0.00          0          0          0
  nlpdiving        :       7.66       0.00         10          1          1
  objpscostdiving  :       6.30       0.00         29          2          0
  octane           :       0.00       0.00          0          0          0
  ofins            :       0.07       0.00          0          0          0
  oneopt           :       0.15       0.00         24          0          0
  padm             :       0.00       0.00          0          0          0
  proximity        :       0.00       0.00          0          0          0
  pscostdiving     :       6.33       0.00        238          1          1
  randrounding     :       0.26       0.00       5108          0          0
  rens             :       0.00       0.00          0          0          0
  reoptsols        :       0.00       0.00          0          0          0
  repair           :       0.00       0.00          0          0          0
  rins             :       2.92       0.00         11          0          0
  rootsoldiving    :       4.75       0.00         23          1          0
  rounding         :       0.56       0.00       4130          0          0
  shiftandpropagate:       0.00       0.00          0          0          0
  shifting         :      10.93       0.00       8176         10          6
  simplerounding   :       0.08       0.00          0          0          0
  subnlp           :      63.73       0.00          0          0          0
  trivial          :       0.00       0.00          2          2          2
  trivialnegation  :       0.00       0.00          0          0          0
  trustregion      :       0.00       0.00          0          0          0
  trysol           :       0.11       0.00          0          0          0
  twoopt           :       0.00       0.00          0          0          0
  undercover       :       1.06       0.00          1          1          1
  vbounds          :       0.00       0.00          0          0          0
  veclendiving     :       3.18       0.00        238          0          0
  zeroobj          :       0.00       0.00          0          0          0
  zirounding       :       0.22       0.00       1000          0          0
  other solutions  :          -          -          -          0          -
Diving (single)    :      Calls      Nodes   LP Iters Backtracks  Conflicts   MinDepth   MaxDepth   AvgDepth  RoundSols  NLeafSols  MinSolDpt  MaxSolDpt  AvgSolDpt
  actconsdiving    :          0          -          -          -          -          -          -          -          -          -          -          -          -
  coefdiving       :          0          -          -          -          -          -          -          -          -          -          -          -          -
  conflictdiving   :        238       4134      49228        244       3814         19         43       31.1          0          -          -          -          -
  distributiondivin:        238       2854      94796        397       3282         20         35       24.9          0          -          -          -          -
  farkasdiving     :          0          -          -          -          -          -          -          -          -          -          -          -          -
  fracdiving       :        239      24956      71935        194       1424         23        262      118.1          0          -          -          -          -
  guideddiving     :        239      23319      74637        165       1391         29        237      111.2          0          1         58         58       58.0
  indicatordiving  :          0          -          -          -          -          -          -          -          -          -          -          -          -
  linesearchdiving :        239       5419      66443        301       4840         23         50       35.8          0          -          -          -          -
  pscostdiving     :        238       4142      87964        247       3820         23         41       30.8          0          1         41         41       41.0
  veclendiving     :        238       4421      31552        239       4450         17         43       32.0          0          -          -          -          -
Diving (adaptive)  :      Calls      Nodes   LP Iters Backtracks  Conflicts   MinDepth   MaxDepth   AvgDepth  RoundSols  NLeafSols  MinSolDpt  MaxSolDpt  AvgSolDpt
  actconsdiving    :         43        531      16096         74        605         20         31       24.6          0          1         29         29       29.0
  coefdiving       :        103       1768      11197        106       1738         21         43       30.6          0          -          -          -          -
  conflictdiving   :          0          -          -          -          -          -          -          -          -          -          -          -          -
  distributiondivin:          0          -          -          -          -          -          -          -          -          -          -          -          -
  farkasdiving     :          0          -          -          -          -          -          -          -          -          -          -          -          -
  fracdiving       :         22       2767       5232         17        126         89        158      140.1          0          -          -          -          -
  guideddiving     :         33       2988       9304         24        242         33        159      104.5          0          -          -          -          -
  indicatordiving  :          0          -          -          -          -          -          -          -          -          -          -          -          -
  linesearchdiving :         51       1137      10549         60        827         26         44       36.2          0          -          -          -          -
  pscostdiving     :         64        963      20908         66       1013         23         36       29.0          0          -          -          -          -
  veclendiving     :         85       1531       6103         86       1188         27         39       32.0          0          -          -          -          -
Neighborhoods      :      Calls  SetupTime  SolveTime SolveNodes       Sols       Best       Exp3  EpsGreedy        UCB TgtFixRate  Opt  Inf Node Stal  Sol  Usr Othr Actv
  rens             :          3       0.06       0.04          6          0          0    0.00000   -1.00000    0.53511      0.437    0    3    0    0    0    0    0    1
  rins             :          2       0.02       0.01          0          0          0    0.00000   -1.00000    0.30105      0.700    0    1    0    0    0    0    1    1
  mutation         :          5       0.11       0.21        122          2          2    0.00000   -1.00000    0.49850      0.585    1    2    0    2    0    0    0    1
  localbranching   :          3       0.08       0.11         69          0          0    0.00000   -1.00000    0.45115      0.662    0    2    0    1    0    0    0    1
  crossover        :          3       0.08       0.01          2          0          0    0.00000   -1.00000    0.53961      0.437    0    3    0    0    0    0    0    1
  proximity        :          3       0.06       0.22         66          0          0    0.00000   -1.00000    0.45925      0.662    0    2    0    1    0    0    0    1
  zeroobjective    :          4       0.13       0.19        111          1          1    0.00000   -1.00000    0.50732      0.522    1    2    0    1    0    0    0    1
  dins             :          2       0.01       0.01          0          0          0    0.00000   -1.00000    0.30105      0.700    0    1    0    0    0    0    1    1
  trustregion      :          0       0.00       0.00          0          0          0    0.00000   -1.00000    1.00000      0.900    0    0    0    0    0    0    0    0
Expressions        :   #IntEval  IntEvalTi   #RevProp  RevPropTi    DomReds    Cutoffs  #Estimate  EstimTime  Branching  #Simplify SimplifyTi Simplified
  pow              :          0       0.00          0       0.00          0          0          0       0.00          0          0       0.00          0
  prod             :       3540       0.01          0       0.00          0          0          0       0.00          0       2655       0.00          0
  sum              :          8       0.00          2       0.00          0          0          0       0.00          0          3       0.00          2
  var              :       3327       0.00          0       0.00          0          0          0       0.00          0       6378       0.00          0
  varidx           :          0       0.00          0       0.00          0          0          0       0.00          0          0       0.00          0
LP                 :       Time      Calls Iterations  Iter/call   Iter/sec  Time-0-It Calls-0-It    ItLimit
  primal LP        :     164.67      15160          0       0.00       0.00     164.63      15160
  dual LP          :    3033.12     185975   26145087     162.00    8619.87       6.36      24583
  lex dual LP      :       0.00          0          0       0.00          -
  barrier LP       :       0.00          0          0       0.00          -       0.00          0
  resolve instable :       0.00          0          0       0.00          -
  diving/probing LP:      45.23       5894     688735     116.85   15227.39
  strong branching :      26.15       5471     391049      71.48   14954.07          -          -         93
    (at root node) :          -         19       3093     162.79          -
  conflict analysis:       5.73       5180      51519       9.95    8991.10
NLP relaxation     :
  solve time       :       6.94 (11 calls)
  convexity        :  nonconvex (1 linear rows, 0 convex ineq., 0 nonconvex ineq., 885 nonlinear eq. or two-sided ineq.)
NLP Solvers        :  #Problems  ProblemTi    #Solves  SolveTime      #Iter  Time/Iter      #Okay #TimeLimit #IterLimit #LObjLimit #Interrupt  #NumError #EvalError  #OutOfMem #LicenseEr #OtherTerm   #GlobOpt    #LocOpt  #Feasible #LocInfeas #GlobInfea #Unbounded   #Unknown
  ipopt            :          2       4.42         14       8.49        423       0.02         14          0          0          0          0          0          0          0          0          0          0          1          1          3          0          0          9
B&B Tree           :
  number of runs   :          1
  nodes            :     148962 (75478 internal, 73484 leaves)
  feasible leaves  :          7
  infeas. leaves   :        212
  objective leaves :      73264
  nodes (total)    :     148962 (75478 internal, 73484 leaves)
  nodes left       :       1966
  max depth        :         31
  max depth (total):         31
  backtracks       :      38681 (26.0%)
  early backtracks :          0 (0.0%)
  nodes exc. ref.  :          0 (0.0%)
  delayed cutoffs  :          4
  repropagations   :       4957 (634 domain reductions, 0 cutoffs)
  avg switch length:       4.36
  switching time   :     189.06
Estim. Tree Size   :     229096
Estimation Tree    : 150957 nodes (148991 visited, 75478 internal, 73513 leaves, 1966 open), weight: 0.6091 completed 0.7656
Estimations        :      estim      value      trend resolution     smooth
  wbe              :     241363          -          -          -          -
  tree-profile     :         -1          -          -          -          -
  gap              :     401780    0.94039    0.00006        128     401018
  tree-weight      :     229096    0.60915    0.00122        128     229341
  leaf-frequency   :     264295    0.49340    0.00001        128     262638
  ssg              :     214254    0.14374   -0.00055        128     212891
  open-nodes       :     222112 1966.00000   -6.69556        128     221276
Root Node          :
  First LP value   : -1.00000000000000e+00
  First LP Iters   :        610 (20333.33 Iter/sec)
  First LP Time    :       0.03
  Final Dual Bound : -9.02401129943504e-01
  Final Root Iters :       1609
  Root LP Estimate : -5.56901159976340e-01
Solution           :
  Solutions found  :         33 (26 improvements)
  First Solution   : +1.00000000000000e+05   (in run 1, after 0 nodes, 0.05 seconds, depth 0, found by <trivial>)
  Gap First Sol.   :   infinite
  Gap Last Sol.    :      19.83 %
  Primal Bound     : -6.04519774011300e-01   (in run 1, after 34889 nodes, 490.08 seconds, depth 22, found by <relaxation>)
  Dual Bound       : -6.42841394515640e-01
  Gap              :       6.34 %
Integrals          :      Total       Avg%
  primal-dual      :   37853.18      10.51
  primal-ref       :          -          - (not evaluated)
  dual-ref         :          -          - (not evaluated)
